NAME          COPTPROB
OBJSENSE
  MIN
ROWS
 N  __OBJ___
 L  C1      
 L  C2      
 L  C3      
 L  C4      
 L  C6      
 L  C7      
 L  C8      
 L  C9      
 L  C11     
 L  C14     
 L  C16     
 L  C17     
 L  C18     
 L  C19     
 L  C21     
 L  C22     
 L  C24     
 L  C26     
 L  C28     
 L  C29     
 L  C31     
 L  C32     
 L  C34     
 L  C35     
 L  C36     
 L  C38     
 L  C41     
 L  C43     
 L  C44     
 L  C45     
 L  C47     
 L  C48     
 L  C50     
 L  C51     
 L  C53     
 L  C55     
 L  C62     
 L  C63     
 L  C65     
 L  C66     
 L  C67     
 L  C68     
 L  C69     
 L  C70     
 L  C71     
 L  C74     
 L  C75     
 L  C76     
 L  C77     
 L  C79     
 L  C80     
 L  C81     
 L  C83     
 L  C84     
 L  C85     
 L  C87     
 L  C89     
 L  C90     
 L  C91     
 L  C92     
 L  C94     
 L  C95     
 L  C98     
 L  C99     
 L  C100    
 L  C101    
 L  C102    
 L  C105    
 L  C107    
 L  C110    
 L  C111    
 L  C112    
 L  C113    
 L  C114    
 L  C115    
 L  C116    
 L  C117    
 L  C118    
 L  C119    
 L  C120    
 L  C121    
 L  C124    
 L  C125    
 L  C128    
 L  C133    
 L  C134    
 L  C138    
 L  C141    
 L  C143    
 L  C144    
 L  C145    
 L  C147    
 L  C148    
 L  C149    
 L  C150    
 L  C151    
 L  C152    
 L  C153    
 L  C154    
 L  C155    
 L  C157    
 L  C158    
 L  C161    
 L  C167    
 L  C168    
 L  C171    
 L  C172    
 L  C174    
 L  C175    
 L  C176    
 L  C178    
 L  C180    
 L  C181    
 L  C183    
 L  C184    
 L  C186    
 L  C190    
 L  C191    
 L  C193    
 L  C194    
 L  C195    
 L  C196    
 L  C197    
 L  C198    
 L  C202    
 L  C203    
 L  C204    
 L  C205    
 L  C208    
 L  C211    
 L  C213    
 L  C214    
 L  C215    
 L  C216    
 L  C217    
 L  C219    
 L  C221    
 L  C222    
 L  C225    
 L  C228    
 L  C230    
 L  C231    
 L  C234    
 L  C235    
 L  C236    
 L  C239    
 L  C241    
 L  C242    
 L  C243    
 L  C245    
 L  C246    
 L  C247    
 L  C251    
 L  C253    
 L  C254    
 L  C257    
 L  C258    
 L  C259    
 L  C261    
 L  C264    
 L  C265    
 L  C266    
 L  C267    
 L  C269    
 L  C272    
 L  C273    
 L  C275    
 L  C277    
 L  C278    
 L  C284    
 L  C285    
 L  C287    
 L  C290    
 L  C291    
 L  C292    
 L  C294    
 L  C296    
 L  C297    
 L  C300    
 L  C301    
 L  C302    
 L  C304    
 L  C306    
 L  C307    
 L  C308    
 L  C311    
 L  C314    
 L  C316    
 L  C318    
 L  C320    
 L  C321    
 L  C324    
 L  C326    
 L  C329    
 L  C331    
 L  C332    
 L  C333    
 L  C334    
 L  C335    
 L  C337    
 L  C340    
 L  C341    
 L  C343    
 L  C344    
 L  C345    
 L  C346    
 L  C348    
 L  C349    
 L  C356    
 L  C357    
 L  C358    
 L  C359    
 L  C360    
 L  C361    
 L  C362    
 L  C363    
 L  C366    
 L  C367    
 L  C368    
 L  C370    
 L  C371    
 L  C373    
 L  C376    
 L  C377    
 L  C378    
 L  C379    
 L  C380    
 L  C381    
 L  C384    
 L  C385    
 L  C386    
 L  C388    
 L  C389    
 L  C390    
 L  C391    
 L  C393    
 L  C394    
 L  C396    
 L  C397    
 L  C399    
 L  C402    
 L  C403    
 L  C404    
 L  C405    
 L  C406    
 L  C409    
 L  C410    
 L  C411    
 L  C412    
 L  C413    
 L  C415    
 L  C416    
 L  C417    
 L  C419    
 L  C423    
 L  C424    
 L  C425    
 L  C428    
 L  C429    
 L  C431    
 L  C432    
 L  C434    
 L  C439    
 L  C440    
 L  C444    
 L  C445    
 L  C447    
 L  C449    
 L  C450    
 L  C451    
 L  C452    
 L  C454    
 L  C455    
 L  C456    
 L  C457    
 L  C461    
 L  C462    
 L  C463    
 L  C464    
 L  C465    
 L  C467    
 L  C468    
 L  C469    
 L  C472    
 L  C473    
 L  C474    
 L  C476    
 L  C477    
 L  C480    
 L  C482    
 L  C487    
 L  C488    
 L  C489    
 L  C491    
 L  C492    
 L  C495    
 L  C496    
 L  C498    
 L  C500    
 L  C502    
 L  C504    
 L  C505    
 L  C506    
 L  C507    
 L  C508    
 L  C512    
 L  C517    
 L  C519    
 L  C521    
 L  C522    
 L  C523    
 L  C527    
 L  C528    
 L  C530    
 L  C531    
 L  C533    
 L  C534    
 L  C536    
 L  C538    
 L  C540    
 L  C542    
 L  C544    
 L  C545    
 L  C549    
 L  C550    
 L  C554    
 L  C555    
 L  C557    
 L  C560    
 L  C561    
 L  C562    
 L  C563    
 L  C565    
COLUMNS
    MARKER    'MARKER'                 'INTORG'
    x1        __OBJ___  -1
    x1        C105      1
    x1        C245      1
    x1        C308      1
    x1        C331      1
    x1        C549      1
    x2        __OBJ___  -1
    x2        C76       1
    x2        C114      1
    x2        C154      1
    x2        C211      1
    x2        C297      1
    x2        C349      1
    x2        C404      1
    x2        C468      1
    x2        C527      1
    x3        __OBJ___  -1
    x3        C66       1
    x3        C71       1
    x3        C94       1
    x3        C98       1
    x3        C100      1
    x3        C134      1
    x3        C141      1
    x3        C180      1
    x3        C230      1
    x3        C234      1
    x3        C254      1
    x3        C259      1
    x3        C264      1
    x3        C300      1
    x3        C316      1
    x3        C335      1
    x3        C367      1
    x3        C487      1
    x3        C521      1
    x4        __OBJ___  -1
    x4        C2        1
    x4        C18       1
    x4        C29       1
    x4        C53       1
    x4        C107      1
    x4        C111      1
    x4        C124      1
    x4        C125      1
    x4        C193      1
    x4        C258      1
    x4        C261      1
    x4        C379      1
    x4        C434      1
    x4        C445      1
    x4        C447      1
    x4        C488      1
    x4        C555      1
    x9        __OBJ___  -1
    x9        C17       1
    x9        C157      1
    x9        C251      1
    x9        C360      1
    x9        C371      1
    x9        C403      1
    x9        C410      1
    x9        C533      1
    x10       __OBJ___  -1
    x10       C22       1
    x10       C65       1
    x10       C116      1
    x10       C134      1
    x10       C154      1
    x10       C197      1
    x10       C202      1
    x10       C228      1
    x11       __OBJ___  -1
    x11       C118      1
    x11       C360      1
    x11       C440      1
    x12       __OBJ___  -1
    x12       C21       1
    x12       C47       1
    x12       C98       1
    x12       C215      1
    x12       C321      1
    x12       C324      1
    x12       C489      1
    x12       C563      1
    x13       __OBJ___  -1
    x13       C41       1
    x13       C43       1
    x13       C112      1
    x13       C117      1
    x13       C118      1
    x13       C225      1
    x13       C447      1
    x13       C534      1
    x13       C554      1
    x14       __OBJ___  -1
    x14       C119      1
    x14       C124      1
    x14       C125      1
    x14       C152      1
    x14       C266      1
    x14       C272      1
    x14       C346      1
    x14       C366      1
    x14       C367      1
    x14       C385      1
    x14       C413      1
    x15       __OBJ___  -1
    x15       C45       1
    x15       C221      1
    x15       C300      1
    x16       __OBJ___  -1
    x16       C24       1
    x16       C43       1
    x16       C172      1
    x16       C219      1
    x16       C265      1
    x16       C307      1
    x16       C344      1
    x16       C370      1
    x16       C388      1
    x16       C508      1
    x18       __OBJ___  -1
    x18       C55       1
    x18       C85       1
    x18       C92       1
    x18       C134      1
    x18       C311      1
    x18       C326      1
    x18       C333      1
    x18       C381      1
    x18       C504      1
    x19       __OBJ___  -1
    x19       C34       1
    x19       C79       1
    x19       C121      1
    x19       C148      1
    x19       C241      1
    x19       C320      1
    x19       C361      1
    x19       C366      1
    x19       C406      1
    x19       C451      1
    x19       C463      1
    x19       C504      1
    x19       C542      1
    x20       __OBJ___  -1
    x20       C6        1
    x20       C45       1
    x20       C125      1
    x20       C133      1
    x20       C193      1
    x20       C277      1
    x20       C379      1
    x20       C389      1
    x20       C425      1
    x20       C434      1
    x20       C445      1
    x20       C560      1
    x21       __OBJ___  -1
    x21       C1        1
    x21       C8        1
    x21       C11       1
    x21       C120      1
    x21       C133      1
    x21       C151      1
    x21       C222      1
    x21       C239      1
    x21       C348      1
    x21       C359      1
    x21       C381      1
    x21       C405      1
    x21       C467      1
    x21       C530      1
    x22       __OBJ___  -1
    x22       C181      1
    x22       C358      1
    x22       C450      1
    x22       C451      1
    x22       C473      1
    x23       __OBJ___  -1
    x23       C213      1
    x23       C402      1
    x23       C540      1
    x24       __OBJ___  -1
    x24       C161      1
    x24       C216      1
    x24       C239      1
    x24       C393      1
    x24       C406      1
    x24       C472      1
    x24       C477      1
    x25       __OBJ___  -1
    x25       C239      1
    x25       C432      1
    x25       C474      1
    x25       C502      1
    x25       C562      1
    x26       __OBJ___  -1
    x26       C1        1
    x26       C100      1
    x26       C269      1
    x26       C416      1
    x26       C561      1
    x30       __OBJ___  -1
    x30       C51       1
    x30       C89       1
    x30       C178      1
    x30       C184      1
    x30       C195      1
    x30       C203      1
    x30       C302      1
    x30       C329      1
    x30       C376      1
    x30       C386      1
    x30       C394      1
    x30       C428      1
    x31       __OBJ___  -1
    x31       C181      1
    x31       C198      1
    x31       C376      1
    x31       C423      1
    x32       __OBJ___  -1
    x32       C44       1
    x32       C68       1
    x32       C242      1
    x32       C488      1
    x33       __OBJ___  -1
    x33       C396      1
    x33       C416      1
    x34       __OBJ___  -1
    x34       C7        1
    x34       C68       1
    x34       C90       1
    x34       C195      1
    x34       C246      1
    x34       C399      1
    x34       C444      1
    x34       C504      1
    x35       __OBJ___  -1
    x35       C24       1
    x35       C63       1
    x35       C91       1
    x35       C115      1
    x35       C128      1
    x35       C376      1
    x36       __OBJ___  -1
    x36       C2        1
    x36       C190      1
    x36       C213      1
    x36       C285      1
    x36       C390      1
    x36       C440      1
    x37       __OBJ___  -1
    x37       C34       1
    x37       C242      1
    x37       C324      1
    x38       __OBJ___  -1
    x38       C211      1
    x38       C225      1
    x39       __OBJ___  -1
    x39       C70       1
    x39       C113      1
    x39       C348      1
    x39       C540      1
    x40       __OBJ___  -1
    x40       C115      1
    x40       C149      1
    x40       C456      1
    x41       __OBJ___  -1
    x41       C29       1
    x41       C186      1
    x41       C332      1
    x41       C434      1
    x41       C521      1
    x42       __OBJ___  -1
    x42       C7        1
    x42       C9        1
    x42       C101      1
    x42       C261      1
    x42       C294      1
    x43       __OBJ___  -1
    x43       C16       1
    x43       C32       1
    x43       C38       1
    x43       C81       1
    x43       C107      1
    x43       C183      1
    x43       C191      1
    x43       C208      1
    x43       C235      1
    x43       C246      1
    x43       C273      1
    x43       C314      1
    x43       C343      1
    x43       C362      1
    x43       C378      1
    x44       __OBJ___  -1
    x44       C193      1
    x44       C197      1
    x44       C452      1
    x44       C474      1
    x45       __OBJ___  -1
    x45       C26       1
    x45       C91       1
    x45       C92       1
    x45       C95       1
    x45       C117      1
    x45       C243      1
    x45       C349      1
    x45       C482      1
    x45       C531      1
    x46       __OBJ___  -1
    x46       C110      1
    x46       C333      1
    x46       C340      1
    x46       C344      1
    x46       C562      1
    x47       __OBJ___  -1
    x47       C110      1
    x47       C150      1
    x47       C264      1
    x47       C287      1
    x47       C371      1
    x47       C498      1
    x48       __OBJ___  -1
    x48       C90       1
    x48       C105      1
    x48       C356      1
    x48       C498      1
    x48       C519      1
    x49       __OBJ___  -1
    x49       C28       1
    x49       C50       1
    x49       C89       1
    x49       C111      1
    x49       C424      1
    x49       C454      1
    x49       C461      1
    x50       __OBJ___  -1
    x50       C119      1
    x50       C171      1
    x50       C247      1
    x50       C381      1
    x51       __OBJ___  -1
    x51       C50       1
    x51       C55       1
    x51       C143      1
    x51       C396      1
    x51       C431      1
    x52       __OBJ___  -1
    x52       C83       1
    x52       C377      1
    x52       C388      1
    x52       C399      1
    x52       C528      1
    x53       __OBJ___  -1
    x53       C67       1
    x53       C259      1
    x53       C389      1
    x53       C439      1
    x55       __OBJ___  -1
    x55       C157      1
    x55       C216      1
    x55       C423      1
    x56       __OBJ___  -1
    x56       C148      1
    x56       C236      1
    x56       C432      1
    x56       C519      1
    x57       __OBJ___  -1
    x57       C254      1
    x57       C273      1
    x57       C345      1
    x57       C560      1
    x58       __OBJ___  -1
    x58       C9        1
    x58       C83       1
    x58       C84       1
    x58       C204      1
    x58       C284      1
    x58       C429      1
    x58       C469      1
    x58       C492      1
    x58       C506      1
    x58       C557      1
    x59       __OBJ___  -1
    x59       C53       1
    x59       C95       1
    x59       C257      1
    x59       C337      1
    x59       C507      1
    x59       C522      1
    x59       C536      1
    x60       __OBJ___  -1
    x60       C148      1
    x60       C345      1
    x60       C403      1
    x61       __OBJ___  -1
    x61       C121      1
    x61       C340      1
    x61       C431      1
    x61       C554      1
    x62       __OBJ___  -1
    x62       C332      1
    x62       C404      1
    x62       C495      1
    x62       C522      1
    x63       __OBJ___  -1
    x63       C158      1
    x63       C198      1
    x63       C217      1
    x63       C292      1
    x63       C296      1
    x63       C413      1
    x63       C455      1
    x63       C456      1
    x64       __OBJ___  -1
    x64       C66       1
    x64       C75       1
    x64       C99       1
    x64       C138      1
    x64       C194      1
    x64       C361      1
    x64       C397      1
    x65       __OBJ___  -1
    x65       C36       1
    x65       C257      1
    x65       C266      1
    x65       C290      1
    x65       C362      1
    x65       C450      1
    x66       __OBJ___  -1
    x66       C62       1
    x66       C63       1
    x66       C151      1
    x66       C176      1
    x66       C294      1
    x67       __OBJ___  -1
    x67       C184      1
    x67       C219      1
    x67       C230      1
    x67       C341      1
    x68       __OBJ___  -1
    x68       C38       1
    x68       C79       1
    x68       C191      1
    x68       C341      1
    x68       C533      1
    x69       __OBJ___  -1
    x69       C143      1
    x69       C284      1
    x69       C373      1
    x69       C415      1
    x69       C477      1
    x69       C517      1
    x70       __OBJ___  -1
    x70       C300      1
    x70       C530      1
    x71       __OBJ___  -1
    x71       C48       1
    x71       C247      1
    x71       C267      1
    x71       C439      1
    x72       __OBJ___  -1
    x72       C174      1
    x72       C454      1
    x72       C502      1
    x73       __OBJ___  -1
    x73       C29       1
    x73       C47       1
    x74       __OBJ___  -1
    x74       C171      1
    x74       C335      1
    x74       C565      1
    x75       __OBJ___  -1
    x75       C35       1
    x75       C74       1
    x75       C144      1
    x75       C393      1
    x75       C411      1
    x75       C473      1
    x75       C476      1
    x75       C531      1
    x75       C545      1
    x75       C550      1
    x76       __OBJ___  -1
    x76       C245      1
    x76       C380      1
    x76       C445      1
    x76       C465      1
    x77       __OBJ___  -1
    x77       C14       1
    x77       C94       1
    x77       C261      1
    x78       __OBJ___  -1
    x78       C145      1
    x78       C287      1
    x78       C292      1
    x78       C331      1
    x78       C363      1
    x78       C550      1
    x79       __OBJ___  -1
    x79       C84       1
    x79       C321      1
    x79       C326      1
    x79       C334      1
    x79       C390      1
    x79       C419      1
    x80       __OBJ___  -1
    x80       C77       1
    x80       C113      1
    x80       C152      1
    x80       C278      1
    x81       __OBJ___  -1
    x81       C4        1
    x81       C180      1
    x81       C265      1
    x81       C415      1
    x82       __OBJ___  -1
    x82       C65       1
    x82       C67       1
    x82       C555      1
    x83       __OBJ___  -1
    x83       C101      1
    x83       C275      1
    x83       C409      1
    x83       C411      1
    x83       C491      1
    x84       __OBJ___  -1
    x84       C102      1
    x84       C175      1
    x84       C297      1
    x84       C359      1
    x84       C463      1
    x85       __OBJ___  -1
    x85       C38       1
    x85       C151      1
    x85       C357      1
    x86       __OBJ___  -1
    x86       C74       1
    x86       C80       1
    x86       C360      1
    x86       C380      1
    x87       __OBJ___  -1
    x87       C306      1
    x87       C417      1
    x87       C488      1
    x88       __OBJ___  -1
    x88       C102      1
    x88       C296      1
    x88       C334      1
    x88       C465      1
    x89       __OBJ___  -1
    x89       C14       1
    x89       C16       1
    x89       C31       1
    x89       C51       1
    x89       C217      1
    x89       C304      1
    x90       __OBJ___  -1
    x90       C35       1
    x90       C215      1
    x90       C424      1
    x91       __OBJ___  -1
    x91       C144      1
    x91       C272      1
    x92       __OBJ___  -1
    x92       C167      1
    x92       C203      1
    x92       C377      1
    x92       C455      1
    x92       C464      1
    x93       __OBJ___  -1
    x93       C120      1
    x93       C308      1
    x93       C457      1
    x94       __OBJ___  -1
    x94       C31       1
    x94       C70       1
    x94       C112      1
    x94       C318      1
    x94       C461      1
    x94       C523      1
    x94       C538      1
    x95       __OBJ___  -1
    x95       C141      1
    x95       C204      1
    x95       C291      1
    x95       C363      1
    x96       __OBJ___  -1
    x96       C36       1
    x96       C114      1
    x96       C356      1
    x97       __OBJ___  -1
    x97       C152      1
    x97       C507      1
    x98       __OBJ___  -1
    x98       C277      1
    x98       C285      1
    x98       C318      1
    x99       __OBJ___  -1
    x99       C18       1
    x99       C80       1
    x99       C449      1
    x99       C538      1
    x100      __OBJ___  -1
    x100      C176      1
    x100      C343      1
    x100      C462      1
    x100      C545      1
    x101      __OBJ___  -1
    x101      C221      1
    x101      C291      1
    x101      C346      1
    x101      C467      1
    x101      C544      1
    x102      __OBJ___  -1
    x102      C19       1
    x102      C124      1
    x102      C368      1
    x102      C384      1
    x103      __OBJ___  -1
    x103      C150      1
    x103      C205      1
    x103      C557      1
    x103      C565      1
    x104      __OBJ___  -1
    x104      C3        1
    x104      C21       1
    x104      C76       1
    x104      C412      1
    x104      C417      1
    x104      C517      1
    x105      __OBJ___  -1
    x105      C284      1
    x105      C480      1
    x105      C517      1
    x106      __OBJ___  -1
    x106      C196      1
    x106      C296      1
    x106      C301      1
    x106      C391      1
    x106      C492      1
    x107      __OBJ___  -1
    x107      C128      1
    x107      C175      1
    x107      C251      1
    x107      C290      1
    x108      __OBJ___  -1
    x108      C48       1
    x108      C194      1
    x108      C386      1
    x108      C480      1
    x109      __OBJ___  -1
    x109      C26       1
    x109      C186      1
    x109      C236      1
    x109      C429      1
    x110      __OBJ___  -1
    x110      C11       1
    x110      C87       1
    x110      C153      1
    x110      C391      1
    x110      C512      1
    x111      __OBJ___  -1
    x111      C191      1
    x111      C472      1
    x111      C563      1
    x112      __OBJ___  -1
    x112      C77       1
    x112      C304      1
    x112      C311      1
    x113      __OBJ___  -1
    x113      C196      1
    x113      C278      1
    x113      C487      1
    x114      __OBJ___  -1
    x114      C17       1
    x114      C314      1
    x114      C367      1
    x115      __OBJ___  -1
    x115      C384      1
    x115      C452      1
    x115      C506      1
    x116      __OBJ___  -1
    x116      C208      1
    x116      C267      1
    x116      C302      1
    x116      C495      1
    x116      C496      1
    x118      __OBJ___  -1
    x118      C69       1
    x118      C71       1
    x118      C183      1
    x118      C549      1
    x119      __OBJ___  -1
    x119      C425      1
    x119      C450      1
    x119      C527      1
    x120      __OBJ___  -1
    x120      C28       1
    x120      C172      1
    x120      C449      1
    x120      C462      1
    x120      C500      1
    x121      __OBJ___  -1
    x121      C241      1
    x121      C536      1
    x122      __OBJ___  -1
    x122      C81       1
    x122      C85       1
    x122      C253      1
    x122      C491      1
    x123      __OBJ___  -1
    x123      C235      1
    x123      C337      1
    x123      C397      1
    x124      __OBJ___  -1
    x124      C22       1
    x124      C158      1
    x124      C405      1
    x124      C500      1
    x125      __OBJ___  -1
    x125      C138      1
    x125      C145      1
    x125      C253      1
    x125      C528      1
    x126      __OBJ___  -1
    x126      C4        1
    x126      C87       1
    x126      C214      1
    x126      C428      1
    x127      __OBJ___  -1
    x127      C155      1
    x127      C269      1
    x127      C412      1
    x127      C469      1
    x128      __OBJ___  -1
    x128      C190      1
    x128      C222      1
    x128      C358      1
    x129      __OBJ___  -1
    x129      C116      1
    x129      C149      1
    x129      C329      1
    x130      __OBJ___  -1
    x130      C41       1
    x130      C357      1
    x131      __OBJ___  -1
    x131      C75       1
    x131      C379      1
    x131      C476      1
    x131      C505      1
    x132      __OBJ___  -1
    x132      C19       1
    x132      C167      1
    x132      C214      1
    x132      C409      1
    x133      __OBJ___  -1
    x133      C32       1
    x133      C161      1
    x134      __OBJ___  -1
    x134      C155      1
    x134      C178      1
    x134      C487      1
    x135      __OBJ___  -1
    x135      C3        1
    x135      C202      1
    x135      C320      1
    x135      C402      1
    x136      __OBJ___  -1
    x136      C147      1
    x136      C153      1
    x136      C205      1
    x136      C373      1
    x137      __OBJ___  -1
    x137      C8        1
    x137      C172      1
    x137      C231      1
    x138      __OBJ___  -1
    x138      C114      1
    x138      C419      1
    x138      C542      1
    x139      __OBJ___  -1
    x139      C234      1
    x139      C258      1
    x139      C410      1
    x139      C508      1
    x140      __OBJ___  -1
    x140      C316      1
    x140      C531      1
    x141      __OBJ___  -1
    x141      C378      1
    x141      C523      1
    x142      __OBJ___  -1
    x142      C44       1
    x142      C464      1
    x142      C505      1
    x142      C561      1
    x143      __OBJ___  -1
    x143      C62       1
    x143      C301      1
    x143      C385      1
    x143      C496      1
    x144      __OBJ___  -1
    x144      C6        1
    x144      C231      1
    x144      C489      1
    x145      __OBJ___  -1
    x145      C174      1
    x145      C444      1
    x145      C457      1
    x146      __OBJ___  -1
    x146      C99       1
    x146      C147      1
    x146      C228      1
    x146      C482      1
    x147      __OBJ___  -1
    x147      C243      1
    x147      C306      1
    x147      C307      1
    x147      C512      1
    x148      __OBJ___  -1
    x148      C168      1
    x148      C275      1
    x148      C349      1
    x148      C394      1
    x149      __OBJ___  -1
    x149      C69       1
    x149      C468      1
    x149      C534      1
    x149      C544      1
    x150      __OBJ___  -1
    x150      C168      1
    x150      C368      1
    x150      C370      1
    MARKER    'MARKER'                 'INTEND'
RHS
    RHS       __OBJ___  2
    RHS       C1        1
    RHS       C2        1
    RHS       C3        1
    RHS       C4        1
    RHS       C6        1
    RHS       C7        1
    RHS       C8        1
    RHS       C9        1
    RHS       C11       1
    RHS       C14       1
    RHS       C16       1
    RHS       C17       1
    RHS       C18       1
    RHS       C19       1
    RHS       C21       1
    RHS       C22       1
    RHS       C24       1
    RHS       C26       1
    RHS       C28       1
    RHS       C29       1
    RHS       C31       1
    RHS       C32       1
    RHS       C34       1
    RHS       C35       1
    RHS       C36       1
    RHS       C38       1
    RHS       C41       1
    RHS       C43       1
    RHS       C44       1
    RHS       C45       1
    RHS       C47       1
    RHS       C48       1
    RHS       C50       1
    RHS       C51       1
    RHS       C53       1
    RHS       C55       1
    RHS       C62       1
    RHS       C63       1
    RHS       C65       1
    RHS       C66       1
    RHS       C67       1
    RHS       C68       1
    RHS       C69       1
    RHS       C70       1
    RHS       C71       1
    RHS       C74       1
    RHS       C75       1
    RHS       C76       1
    RHS       C77       1
    RHS       C79       1
    RHS       C80       1
    RHS       C81       1
    RHS       C83       1
    RHS       C84       1
    RHS       C85       1
    RHS       C87       1
    RHS       C89       1
    RHS       C90       1
    RHS       C91       1
    RHS       C92       1
    RHS       C94       1
    RHS       C95       1
    RHS       C98       1
    RHS       C99       1
    RHS       C100      1
    RHS       C101      1
    RHS       C102      1
    RHS       C105      1
    RHS       C107      1
    RHS       C110      1
    RHS       C111      1
    RHS       C112      1
    RHS       C113      1
    RHS       C114      1
    RHS       C115      1
    RHS       C116      1
    RHS       C117      1
    RHS       C118      1
    RHS       C119      1
    RHS       C120      1
    RHS       C121      1
    RHS       C124      1
    RHS       C125      1
    RHS       C128      1
    RHS       C133      1
    RHS       C134      1
    RHS       C138      1
    RHS       C141      1
    RHS       C143      1
    RHS       C144      1
    RHS       C145      1
    RHS       C147      1
    RHS       C148      1
    RHS       C149      1
    RHS       C150      1
    RHS       C151      1
    RHS       C152      1
    RHS       C153      1
    RHS       C154      1
    RHS       C155      1
    RHS       C157      1
    RHS       C158      1
    RHS       C161      1
    RHS       C167      1
    RHS       C168      1
    RHS       C171      1
    RHS       C172      1
    RHS       C174      1
    RHS       C175      1
    RHS       C176      1
    RHS       C178      1
    RHS       C180      1
    RHS       C181      1
    RHS       C183      1
    RHS       C184      1
    RHS       C186      1
    RHS       C190      1
    RHS       C191      1
    RHS       C193      1
    RHS       C194      1
    RHS       C195      1
    RHS       C196      1
    RHS       C197      1
    RHS       C198      1
    RHS       C202      1
    RHS       C203      1
    RHS       C204      1
    RHS       C205      1
    RHS       C208      1
    RHS       C211      1
    RHS       C213      1
    RHS       C214      1
    RHS       C215      1
    RHS       C216      1
    RHS       C217      1
    RHS       C219      1
    RHS       C221      1
    RHS       C222      1
    RHS       C225      1
    RHS       C228      1
    RHS       C230      1
    RHS       C231      1
    RHS       C234      1
    RHS       C235      1
    RHS       C236      1
    RHS       C239      1
    RHS       C241      1
    RHS       C242      1
    RHS       C243      1
    RHS       C245      1
    RHS       C246      1
    RHS       C247      1
    RHS       C251      1
    RHS       C253      1
    RHS       C254      1
    RHS       C257      1
    RHS       C258      1
    RHS       C259      1
    RHS       C261      1
    RHS       C264      1
    RHS       C265      1
    RHS       C266      1
    RHS       C267      1
    RHS       C269      1
    RHS       C272      1
    RHS       C273      1
    RHS       C275      1
    RHS       C277      1
    RHS       C278      1
    RHS       C284      1
    RHS       C285      1
    RHS       C287      1
    RHS       C290      1
    RHS       C291      1
    RHS       C292      1
    RHS       C294      1
    RHS       C296      1
    RHS       C297      1
    RHS       C300      1
    RHS       C301      1
    RHS       C302      1
    RHS       C304      1
    RHS       C306      1
    RHS       C307      1
    RHS       C308      1
    RHS       C311      1
    RHS       C314      1
    RHS       C316      1
    RHS       C318      1
    RHS       C320      1
    RHS       C321      1
    RHS       C324      1
    RHS       C326      1
    RHS       C329      1
    RHS       C331      1
    RHS       C332      1
    RHS       C333      1
    RHS       C334      1
    RHS       C335      1
    RHS       C337      1
    RHS       C340      1
    RHS       C341      1
    RHS       C343      1
    RHS       C344      1
    RHS       C345      1
    RHS       C346      1
    RHS       C348      1
    RHS       C349      1
    RHS       C356      1
    RHS       C357      1
    RHS       C358      1
    RHS       C359      1
    RHS       C360      1
    RHS       C361      1
    RHS       C362      1
    RHS       C363      1
    RHS       C366      1
    RHS       C367      1
    RHS       C368      1
    RHS       C370      1
    RHS       C371      1
    RHS       C373      1
    RHS       C376      1
    RHS       C377      1
    RHS       C378      1
    RHS       C379      1
    RHS       C380      1
    RHS       C381      1
    RHS       C384      1
    RHS       C385      1
    RHS       C386      1
    RHS       C388      1
    RHS       C389      1
    RHS       C390      1
    RHS       C391      1
    RHS       C393      1
    RHS       C394      1
    RHS       C396      1
    RHS       C397      1
    RHS       C399      1
    RHS       C402      1
    RHS       C403      1
    RHS       C404      1
    RHS       C405      1
    RHS       C406      1
    RHS       C409      1
    RHS       C410      1
    RHS       C411      1
    RHS       C412      1
    RHS       C413      1
    RHS       C415      1
    RHS       C416      1
    RHS       C417      1
    RHS       C419      1
    RHS       C423      1
    RHS       C424      1
    RHS       C425      1
    RHS       C428      1
    RHS       C429      1
    RHS       C431      1
    RHS       C432      1
    RHS       C434      1
    RHS       C439      1
    RHS       C440      1
    RHS       C444      1
    RHS       C445      1
    RHS       C447      1
    RHS       C449      1
    RHS       C450      1
    RHS       C451      1
    RHS       C452      1
    RHS       C454      1
    RHS       C455      1
    RHS       C456      1
    RHS       C457      1
    RHS       C461      1
    RHS       C462      1
    RHS       C463      1
    RHS       C464      1
    RHS       C465      1
    RHS       C467      1
    RHS       C468      1
    RHS       C469      1
    RHS       C472      1
    RHS       C473      1
    RHS       C474      1
    RHS       C476      1
    RHS       C477      1
    RHS       C480      1
    RHS       C482      1
    RHS       C487      1
    RHS       C488      1
    RHS       C489      1
    RHS       C491      1
    RHS       C492      1
    RHS       C495      1
    RHS       C496      1
    RHS       C498      1
    RHS       C500      1
    RHS       C502      1
    RHS       C504      1
    RHS       C505      1
    RHS       C506      1
    RHS       C507      1
    RHS       C508      1
    RHS       C512      1
    RHS       C517      1
    RHS       C519      1
    RHS       C521      1
    RHS       C522      1
    RHS       C523      1
    RHS       C527      1
    RHS       C528      1
    RHS       C530      1
    RHS       C531      1
    RHS       C533      1
    RHS       C534      1
    RHS       C536      1
    RHS       C538      1
    RHS       C540      1
    RHS       C542      1
    RHS       C544      1
    RHS       C545      1
    RHS       C549      1
    RHS       C550      1
    RHS       C554      1
    RHS       C555      1
    RHS       C557      1
    RHS       C560      1
    RHS       C561      1
    RHS       C562      1
    RHS       C563      1
    RHS       C565      1
BOUNDS
 UP BOUND     x1        1
 UP BOUND     x2        1
 UP BOUND     x3        1
 UP BOUND     x4        1
 UP BOUND     x9        1
 UP BOUND     x10       1
 UP BOUND     x11       1
 UP BOUND     x12       1
 UP BOUND     x13       1
 UP BOUND     x14       1
 UP BOUND     x15       1
 UP BOUND     x16       1
 UP BOUND     x18       1
 UP BOUND     x19       1
 UP BOUND     x20       1
 UP BOUND     x21       1
 UP BOUND     x22       1
 UP BOUND     x23       1
 UP BOUND     x24       1
 UP BOUND     x25       1
 UP BOUND     x26       1
 UP BOUND     x30       1
 UP BOUND     x31       1
 UP BOUND     x32       1
 UP BOUND     x33       1
 UP BOUND     x34       1
 UP BOUND     x35       1
 UP BOUND     x36       1
 UP BOUND     x37       1
 UP BOUND     x38       1
 UP BOUND     x39       1
 UP BOUND     x40       1
 UP BOUND     x41       1
 UP BOUND     x42       1
 UP BOUND     x43       1
 UP BOUND     x44       1
 UP BOUND     x45       1
 UP BOUND     x46       1
 UP BOUND     x47       1
 UP BOUND     x48       1
 UP BOUND     x49       1
 UP BOUND     x50       1
 UP BOUND     x51       1
 UP BOUND     x52       1
 UP BOUND     x53       1
 UP BOUND     x55       1
 UP BOUND     x56       1
 UP BOUND     x57       1
 UP BOUND     x58       1
 UP BOUND     x59       1
 UP BOUND     x60       1
 UP BOUND     x61       1
 UP BOUND     x62       1
 UP BOUND     x63       1
 UP BOUND     x64       1
 UP BOUND     x65       1
 UP BOUND     x66       1
 UP BOUND     x67       1
 UP BOUND     x68       1
 UP BOUND     x69       1
 UP BOUND     x70       1
 UP BOUND     x71       1
 UP BOUND     x72       1
 UP BOUND     x73       1
 UP BOUND     x74       1
 UP BOUND     x75       1
 UP BOUND     x76       1
 UP BOUND     x77       1
 UP BOUND     x78       1
 UP BOUND     x79       1
 UP BOUND     x80       1
 UP BOUND     x81       1
 UP BOUND     x82       1
 UP BOUND     x83       1
 UP BOUND     x84       1
 UP BOUND     x85       1
 UP BOUND     x86       1
 UP BOUND     x87       1
 UP BOUND     x88       1
 UP BOUND     x89       1
 UP BOUND     x90       1
 UP BOUND     x91       1
 UP BOUND     x92       1
 UP BOUND     x93       1
 UP BOUND     x94       1
 UP BOUND     x95       1
 UP BOUND     x96       1
 UP BOUND     x97       1
 UP BOUND     x98       1
 UP BOUND     x99       1
 UP BOUND     x100      1
 UP BOUND     x101      1
 UP BOUND     x102      1
 UP BOUND     x103      1
 UP BOUND     x104      1
 UP BOUND     x105      1
 UP BOUND     x106      1
 UP BOUND     x107      1
 UP BOUND     x108      1
 UP BOUND     x109      1
 UP BOUND     x110      1
 UP BOUND     x111      1
 UP BOUND     x112      1
 UP BOUND     x113      1
 UP BOUND     x114      1
 UP BOUND     x115      1
 UP BOUND     x116      1
 UP BOUND     x118      1
 UP BOUND     x119      1
 UP BOUND     x120      1
 UP BOUND     x121      1
 UP BOUND     x122      1
 UP BOUND     x123      1
 UP BOUND     x124      1
 UP BOUND     x125      1
 UP BOUND     x126      1
 UP BOUND     x127      1
 UP BOUND     x128      1
 UP BOUND     x129      1
 UP BOUND     x130      1
 UP BOUND     x131      1
 UP BOUND     x132      1
 UP BOUND     x133      1
 UP BOUND     x134      1
 UP BOUND     x135      1
 UP BOUND     x136      1
 UP BOUND     x137      1
 UP BOUND     x138      1
 UP BOUND     x139      1
 UP BOUND     x140      1
 UP BOUND     x141      1
 UP BOUND     x142      1
 UP BOUND     x143      1
 UP BOUND     x144      1
 UP BOUND     x145      1
 UP BOUND     x146      1
 UP BOUND     x147      1
 UP BOUND     x148      1
 UP BOUND     x149      1
 UP BOUND     x150      1
ENDATA
